(set-info :status unknown)
(declare-fun C () (_ BitVec 55))
(declare-fun %x () (_ BitVec 23))
(declare-fun |ana_WillNotOverflowSignedAdd(%x, trunc(C))| () (_ BitVec 1))
(declare-fun u_%sx () (_ BitVec 8))
(assert
 (let (($x18011 (= (bvadd ((_ sign_extend 1) %x) ((_ sign_extend 1) ((_ extract 22 0) C))) ((_ sign_extend 1) (bvadd %x ((_ extract 22 0) C))))))
 (let (($x18483 (= |ana_WillNotOverflowSignedAdd(%x, trunc(C))| (_ bv1 1))))
 (and (=> $x18483 $x18011) (= u_%sx (_ bv1 8)) $x18483 (= (bvand C (bvshl (_ bv36028797018963967 55) (bvsub (_ bv23 55) (_ bv1 55)))) (_ bv0 55)) (not $x18011)))))
(check-sat)
